(set-logic QF_BV)
(declare-fun _substvar_845_ () (_ BitVec 119))
(declare-fun _substvar_1652_ () (_ BitVec 1))
(declare-fun _substvar_846_ () (_ BitVec 119))
(declare-fun _substvar_1079_ () (_ BitVec 119))
(declare-fun _substvar_1651_ () (_ BitVec 1))
(declare-fun _substvar_1040_ () (_ BitVec 119))
(assert (= (bvnot (_ bv0 119)) (bvor _substvar_1040_ (bvor _substvar_846_ (bvor _substvar_845_ _substvar_1079_)))))
(define-fun bitsumhelper ((x (_ BitVec 17))) (_ BitVec 17) (bvand x (bvsub x (_ bv1 17))))
(assert (= (_ bv0 17) (bitsumhelper (bitsumhelper (bitsumhelper (bitsumhelper (concat ((_ extract 2 2) _substvar_845_) (concat ((_ extract 9 9) _substvar_845_) (concat ((_ extract 16 16) _substvar_845_) (concat ((_ extract 23 23) _substvar_845_) (concat ((_ extract 30 30) _substvar_845_) (concat ((_ extract 37 37) _substvar_845_) (concat ((_ extract 44 44) _substvar_845_) (concat ((_ extract 51 51) _substvar_845_) (concat ((_ extract 58 58) _substvar_845_) (_ bv0 8))))))))))))))))
(assert (= (_ bv0 17) (bitsumhelper (bitsumhelper (bitsumhelper (bitsumhelper (concat ((_ extract 2 2) _substvar_1079_) (concat ((_ extract 9 9) _substvar_1079_) (concat ((_ extract 16 16) _substvar_1079_) (concat ((_ extract 23 23) _substvar_1079_) (concat ((_ extract 30 30) _substvar_1079_) (concat ((_ extract 37 37) _substvar_1079_) (concat ((_ extract 44 44) _substvar_1079_) (concat ((_ extract 51 51) _substvar_1079_) (concat ((_ extract 58 58) _substvar_1079_) (_ bv0 8))))))))))))))))
(assert (not (= (_ bv0 17) (bitsumhelper (bitsumhelper (bitsumhelper (concat (_ bv0 1) (concat (_ bv0 1) (concat (_ bv0 1) (concat (_ bv0 1) (concat (_ bv0 1) (concat ((_ extract 41 41) _substvar_1079_) (concat (_ bv0 1) (concat ((_ extract 55 55) _substvar_1079_) (concat _substvar_1652_ (concat (_ bv0 1) (concat _substvar_1651_ (_ bv0 6))))))))))))))))))
(assert (= (_ bv0 119) (bvxor (_ bv0 119) (bvnot (bvneg (bvxor _substvar_1040_ (_ bv0 119)))))))
(assert (= (bvand (concat _substvar_1079_ _substvar_1079_) (bvand (concat _substvar_1079_ _substvar_1079_) (bvand (concat _substvar_1079_ _substvar_1079_) (bvand (concat _substvar_1079_ _substvar_1079_) (bvand (concat _substvar_1079_ _substvar_1079_) (bvlshr (concat _substvar_1079_ _substvar_1079_) (_ bv5 238))))))) (_ bv0 238)))
(assert (= (_ bv0 119) (bvand ((_ rotate_right 1) _substvar_1079_) _substvar_846_)))
(assert (= (_ bv0 119) (bvand ((_ rotate_right 1) _substvar_845_) _substvar_846_)))
(check-sat)
(exit)
